Gurobi Optimizer version 10.0.3 build v10.0.3rc0 (win64)

CPU model: 13th Gen Intel(R) Core(TM) i7-13700T, instruction set [SSE2|AVX|AVX2]
Thread count: 16 physical cores, 24 logical processors, using up to 24 threads

Optimize a model with 4975885 rows, 392729 columns and 10137325 nonzeros
Model fingerprint: 0x6b4f9dea
Variable types: 0 continuous, 392729 integer (69360 binary)
Coefficient statistics:
  Matrix range     [1e+00, 6e+02]
  Objective range  [7e+00, 3e+02]
  Bounds range     [1e+00, 1e+00]
  RHS range        [1e+00, 6e+02]
Presolve removed 155580 rows and 249754 columns (presolve time = 5s) ...
Presolve removed 155580 rows and 249754 columns (presolve time = 10s) ...
Presolve removed 155580 rows and 249754 columns (presolve time = 15s) ...
Presolve removed 710867 rows and 266380 columns (presolve time = 20s) ...
Presolve removed 715506 rows and 266538 columns (presolve time = 25s) ...
Presolve removed 715506 rows and 266538 columns (presolve time = 30s) ...
Presolve removed 1274841 rows and 283221 columns (presolve time = 35s) ...
Presolve removed 1274944 rows and 283242 columns (presolve time = 40s) ...
Presolve removed 1564206 rows and 283242 columns (presolve time = 45s) ...
Presolve removed 1585407 rows and 299180 columns (presolve time = 50s) ...
Presolve removed 1692302 rows and 299180 columns (presolve time = 55s) ...
Presolve removed 1804532 rows and 299180 columns (presolve time = 60s) ...
Presolve removed 2129957 rows and 299864 columns (presolve time = 65s) ...
Presolve removed 2151966 rows and 315718 columns (presolve time = 70s) ...
Presolve removed 2270229 rows and 315718 columns (presolve time = 75s) ...
Presolve removed 2341455 rows and 315718 columns (presolve time = 80s) ...
Presolve removed 2404835 rows and 315718 columns (presolve time = 85s) ...
Presolve removed 2715284 rows and 332197 columns (presolve time = 90s) ...
Presolve removed 2873552 rows and 332197 columns (presolve time = 95s) ...
Presolve removed 3280045 rows and 348610 columns (presolve time = 100s) ...
Presolve removed 3418855 rows and 348610 columns (presolve time = 105s) ...
Presolve removed 3541460 rows and 349356 columns (presolve time = 110s) ...
Presolve removed 3848680 rows and 364970 columns (presolve time = 115s) ...
Presolve removed 3982429 rows and 364970 columns (presolve time = 120s) ...
Presolve removed 4047890 rows and 364970 columns (presolve time = 125s) ...
Presolve removed 4386241 rows and 365735 columns (presolve time = 130s) ...
Presolve removed 4523423 rows and 381241 columns (presolve time = 135s) ...
Presolve removed 4590738 rows and 381241 columns (presolve time = 140s) ...
Presolve removed 4658481 rows and 381241 columns (presolve time = 146s) ...
Presolve removed 4943304 rows and 390116 columns (presolve time = 150s) ...
Presolve removed 4973537 rows and 391577 columns
Presolve time: 152.25s
Presolved: 2348 rows, 1152 columns, 5291 nonzeros
Variable types: 0 continuous, 1152 integer (349 binary)
Found heuristic solution: objective 32276.100000
Found heuristic solution: objective 44623.550000

Root simplex log...

Iteration    Objective       Primal Inf.    Dual Inf.      Time
       0    8.4832280e+04   8.513750e+02   0.000000e+00    153s
    1058    7.6058896e+04   0.000000e+00   0.000000e+00    153s

Root relaxation: objective 7.605890e+04, 1058 iterations, 0.01 seconds (0.00 work units)

    Nodes    |    Current Node    |     Objective Bounds      |     Work
 Expl Unexpl |  Obj  Depth IntInf | Incumbent    BestBd   Gap | It/Node Time

     0     0 76058.8956    0   82 44623.5500 76058.8956  70.4%     -  152s
H    0     0                    71563.780000 76058.8956  6.28%     -  152s
H    0     0                    75154.980000 76058.8956  1.20%     -  152s
H    0     0                    75528.980000 76058.8956  0.70%     -  152s
     0     0 75967.9875    0   11 75528.9800 75967.9875  0.58%     -  152s
H    0     0                    75589.190000 75967.9875  0.50%     -  152s
H    0     0                    75766.590000 75967.9875  0.27%     -  153s
H    0     0                    75783.190000 75967.1785  0.24%     -  153s
     0     0 75898.1306    0   77 75783.1900 75898.1306  0.15%     -  153s
     0     0 75898.1306    0    4 75783.1900 75898.1306  0.15%     -  153s
H    0     0                    75811.190000 75898.1306  0.11%     -  153s
     0     0 75864.2353    0   26 75811.1900 75864.2353  0.07%     -  153s
     0     0 75852.5837    0   27 75811.1900 75852.5837  0.05%     -  153s
H    0     0                    75814.290000 75828.6135  0.02%     -  153s

Cutting planes:
  Gomory: 2
  MIR: 7

Explored 1 nodes (1591 simplex iterations) in 153.28 seconds (83.94 work units)
Thread count was 24 (of 24 available processors)

Solution count 10: 75814.3 75811.2 75783.2 ... 32276.1

Optimal solution found (tolerance 1.00e-04)
Best objective 7.581429000000e+04, best bound 7.581429000000e+04, gap 0.0000%
Valor da função objetivo:  75814.29000000001

Tempo para criar o modelo:  38.601019859313965
